0000000000000000
0000000000000000
0000000000000000
0000000000000000
0000000110000000
0000000110000000
0000000010000000
0000000010000000
0000000010000000
0000000010000000
0000000010000000
0000001011000000
0000011001000000
0000000000000000
0000000000000000
0000000000000000
